Gurobi Optimizer version 9.1.0 build v9.1.0rc0 (linux64)
Thread count: 8 physical cores, 16 logical processors, using up to 16 threads
Optimize a model with 191914 rows, 180720 columns and 1051770 nonzeros
Model fingerprint: 0xc6e627aa
Variable types: 0 continuous, 180720 integer (180720 binary)
Coefficient statistics:
  Matrix range     [1e+00, 1e+00]
  Objective range  [1e+01, 5e+04]
  Bounds range     [1e+00, 1e+00]
  RHS range        [1e+00, 5e+02]
Presolve added 0 rows and 4970 columns
Presolve removed 30 rows and 0 columns
Presolve time: 4.51s
Presolved: 191884 rows, 185690 columns, 766710 nonzeros
Variable types: 0 continuous, 185690 integer (185690 binary)
Found heuristic solution: objective 537751.00000

Concurrent LP optimizer: primal simplex, dual simplex, and barrier
Showing barrier log only...

Root barrier log...

Ordering time: 0.06s

Barrier statistics:
 Dense cols : 360
 AA' NZ     : 5.947e+05
 Factor NZ  : 3.756e+06 (roughly 200 MBytes of memory)
 Factor Ops : 1.010e+09 (less than 1 second per iteration)
 Threads    : 6

                  Objective                Residual
Iter       Primal          Dual         Primal    Dual     Compl     Time
   0   1.91922183e+08 -2.90822749e+08  2.87e+02 3.07e+01  1.74e+04     8s
   1   1.07829902e+06 -3.18911728e+08  1.15e+00 5.09e+02  6.26e+02     8s
   2   6.73755122e+05 -1.07933465e+08  2.60e-01 1.79e+02  2.00e+02     9s
   3   6.25892651e+05 -3.57883895e+07  1.55e-01 5.73e+01  6.67e+01     9s
   4   5.97129750e+05 -1.61783415e+06  9.77e-02 4.21e+00  4.00e+00    10s
   5   5.60087317e+05 -7.37233704e+05  6.15e-02 2.38e+00  2.32e+00    10s
   6   5.18070946e+05 -1.03611890e+05  3.63e-02 1.15e+00  1.11e+00    11s
   7   4.82678270e+05  2.21906281e+05  2.33e-02 7.10e-01  4.59e-01    12s
   8   4.67140645e+05  2.99063042e+05  1.91e-02 4.53e-01  2.93e-01    12s
   9   4.60301305e+05  3.30139864e+05  1.73e-02 2.95e-01  2.26e-01    13s
  10   4.52568876e+05  3.48354289e+05  1.53e-02 2.02e-01  1.80e-01    13s
  11   4.42210994e+05  3.61192301e+05  1.27e-02 1.86e-01  1.39e-01    14s
  12   4.32919576e+05  3.70593119e+05  1.05e-02 1.30e-01  1.07e-01    14s
  13   4.23421963e+05  3.76811129e+05  8.40e-03 9.34e-02  7.96e-02    15s
  14   4.13324585e+05  3.81890810e+05  6.06e-03 7.04e-02  5.35e-02    16s
  15   4.07754133e+05  3.84686697e+05  4.65e-03 4.58e-02  3.91e-02    16s
  16   4.03623454e+05  3.86747275e+05  3.57e-03 2.89e-02  2.85e-02    17s
  17   4.00613592e+05  3.87633485e+05  2.77e-03 2.09e-02  2.19e-02    17s
  18   3.98197441e+05  3.88500534e+05  2.11e-03 1.45e-02  1.64e-02    18s
  19   3.96371821e+05  3.89097936e+05  1.63e-03 1.62e-02  1.23e-02    18s
  20   3.94630937e+05  3.89501138e+05  1.13e-03 1.42e-02  8.66e-03    19s
  21   3.93655857e+05  3.89738285e+05  8.67e-04 1.13e-02  6.61e-03    19s
  22   3.93079598e+05  3.90045187e+05  7.06e-04 7.62e-03  5.10e-03    20s
  23   3.92432566e+05  3.90223142e+05  5.24e-04 5.56e-03  3.71e-03    20s
  24   3.92008225e+05  3.90329271e+05  3.99e-04 4.05e-03  2.82e-03    20s
  25   3.91775248e+05  3.90435906e+05  3.35e-04 2.93e-03  2.24e-03    21s
  26   3.91545961e+05  3.90509552e+05  2.66e-04 2.09e-03  1.73e-03    21s
  27   3.91267372e+05  3.90556484e+05  1.82e-04 1.56e-03  1.19e-03    22s
  28   3.91109797e+05  3.90593391e+05  1.33e-04 1.16e-03  8.62e-04    22s
  29   3.91044784e+05  3.90609839e+05  1.12e-04 9.67e-04  7.26e-04    23s
  30   3.90948620e+05  3.90639719e+05  7.97e-05 6.54e-04  5.15e-04    23s
  31   3.90893620e+05  3.90665779e+05  6.28e-05 3.90e-04  3.78e-04    24s
  32   3.90837899e+05  3.90679822e+05  4.39e-05 2.57e-04  2.62e-04    24s
  33   3.90795884e+05  3.90686129e+05  2.94e-05 1.95e-04  1.83e-04    25s
  34   3.90769352e+05  3.90691735e+05  2.03e-05 1.43e-04  1.29e-04    25s
  35   3.90755101e+05  3.90698714e+05  1.56e-05 8.13e-05  9.36e-05    26s
  36   3.90736297e+05  3.90701661e+05  9.20e-06 5.13e-05  5.77e-05    26s
  37   3.90727020e+05  3.90703032e+05  6.19e-06 4.08e-05  4.00e-05    27s
  38   3.90720700e+05  3.90704405e+05  4.00e-06 3.03e-05  2.73e-05    27s
  39   3.90717514e+05  3.90705154e+05  2.91e-06 2.47e-05  2.08e-05    27s
  40   3.90715512e+05  3.90705806e+05  2.22e-06 2.00e-05  1.63e-05    28s
  41   3.90714602e+05  3.90706534e+05  1.92e-06 1.49e-05  1.35e-05    28s
  42   3.90713261e+05  3.90707211e+05  1.49e-06 1.05e-05  1.01e-05    29s
  43   3.90711935e+05  3.90707626e+05  1.04e-06 7.67e-06  7.23e-06    29s
  44   3.90710746e+05  3.90708009e+05  6.42e-07 5.07e-06  4.60e-06    30s
  45   3.90710252e+05  3.90708424e+05  4.75e-07 2.48e-06  3.05e-06    30s
  46   3.90710054e+05  3.90708690e+05  4.10e-07 5.59e-07  2.25e-06    31s
  47   3.90708921e+05  3.90708792e+05  2.89e-08 2.30e-08  2.18e-07    31s
  48   3.90708821e+05  3.90708819e+05  5.78e-10 2.33e-08  4.31e-09    31s

Barrier solved model in 48 iterations and 31.36 seconds
Optimal objective 3.90708821e+05


Root crossover log...

   40740 DPushes remaining with DInf 0.0000000e+00                32s
       0 DPushes remaining with DInf 0.0000000e+00                33s

    1597 PPushes remaining with PInf 0.0000000e+00                33s
       0 PPushes remaining with PInf 0.0000000e+00                33s

  Push phase complete: Pinf 0.0000000e+00, Dinf 4.8103033e-10     33s


Root simplex log...

Iteration    Objective       Primal Inf.    Dual Inf.      Time
    9309    3.9070882e+05   0.000000e+00   0.000000e+00     33s
    9309    3.9070882e+05   0.000000e+00   0.000000e+00     33s

Solved with barrier

Root relaxation: objective 3.907088e+05, 9309 iterations, 27.12 seconds
Total elapsed time = 35.15s

    Nodes    |    Current Node    |     Objective Bounds      |     Work
 Expl Unexpl |  Obj  Depth IntInf | Incumbent    BestBd   Gap | It/Node Time

     0     0 390708.819    0 23308 537751.000 390708.819  27.3%     -   36s
H    0     0                    430643.00000 390708.819  9.27%     -   37s
H    0     0                    429592.00000 390708.819  9.05%     -   39s
     0     0 390710.861    0 23303 429592.000 390710.861  9.05%     -   52s
H    0     0                    429585.00000 390710.861  9.05%     -   55s
H    0     0                    428343.00000 390710.861  8.79%     -   58s
     0     0 390711.674    0 23293 428343.000 390711.674  8.79%     -   60s
     0     0 390713.999    0 23283 428343.000 390713.999  8.78%     -   71s
H    0     0                    428283.00000 390713.999  8.77%     -   73s
H    0     0                    425516.00000 390713.999  8.18%     -   74s
     0     0 390715.220    0 23298 425516.000 390715.220  8.18%     -   77s
     0     0 390715.220    0 23298 425516.000 390715.220  8.18%     -   92s
H    0     0                    423998.00000 390715.477  7.85%     -  156s
H    0     2                    421898.00000 390715.477  7.39%     -  165s
     0     2 390715.477    0 23298 421898.000 390715.477  7.39%     -  165s

Cutting planes:
  Gomory: 4

Explored 1 nodes (16119 simplex iterations) in 300.06 seconds
Thread count was 16 (of 16 available processors)

Solution count 9: 421898 423998 425516 ... 537751

Time limit reached
Best objective 4.218980000000e+05, best bound 3.907160000000e+05, gap 7.3909%

User-callback calls 15701, time in user-callback 0.25 sec
['/opt/local/stow/gurobi910/linux64/lib/libgurobi91.so']
Result: runtime=165.17sec; objective=421898; gap=0.0739%
Solution written to /autofs/unityaccount/cremi/mdeboute/Bureau/multi-period-flp/solution//instSingle_I30_J500_T12_1_result.txt
